30 5 1 1 111111
30 4 1 7 2 6 4 8 5 9 4 1 6 2 5 3 4 4 8 3 2 3 4 3 5 5 3 1 10 3 8 5 10 4 1 1 2 1 3 1 5 10 4 1 8 3 9 4 9 5 1 4 1 7 3 10 4 3 5 6 4 1 5 2 10 4 10 5 5 3 1 10 4 1 5 6 3 1 8 3 1 4 1 4 1 4 2 7 3 5 4 1 4 2 4 3 4 4 5 5 9 3 1 3 3 7 4 5 4 1 10 2 9 3 10 5 4 3 1 1 3 2 5 1 4 1 3 2 1 3 2 5 4 4 1 3 2 7 3 6 4 9 3 2 3 4 1 5 2 3 1 2 3 7 5 9 4 1 6 2 10 3 4 4 9 4 1 10 3 5 4 10 5 4 3 1 10 4 9 5 9 4 1 6 2 4 3 5 4 2 3 3 7 4 9 5 2 4 1 7 2 1 3 6 5 5 4 2 6 3 5 4 6 5 8 4 2 3 3 8 4 8 5 8 4 1 3 3 9 4 2 5 2 4 2 8 3 7 4 10 5 7 4 1 6 2 8 3 4 4 8 
30 4 2 5 3 2 4 3 5 6 3 1 4 2 9 4 9 3 2 7 4 2 5 3 4 2 3 3 2 4 3 5 7 4 1 1 2 5 3 7 5 3 4 1 7 3 8 4 5 5 9 3 1 2 3 8 5 5 3 1 6 2 9 3 2 4 1 5 2 6 3 3 4 7 3 2 1 3 4 4 4 3 1 7 2 6 4 10 4 2 6 3 7 4 2 5 4 3 1 10 3 8 5 9 4 1 5 3 2 4 9 5 3 4 1 10 2 1 4 3 5 5 4 2 5 3 2 4 2 5 10 4 1 4 2 2 3 6 4 4 3 1 10 3 2 5 6 3 2 8 4 8 5 8 4 1 3 2 2 3 3 5 2 3 2 2 3 9 5 4 4 1 9 2 8 3 4 4 3 4 1 10 2 2 3 9 5 9 4 1 7 2 5 3 1 5 5 3 1 7 2 9 4 5 3 3 3 4 8 5 3 3 1 2 2 9 5 1 3 1 1 3 4 5 1 3 1 2 4 5 5 8 3 1 5 4 7 5 8 
30 4 2 10 3 8 4 5 5 8 4 1 1 2 2 3 5 4 4 3 1 7 3 3 5 6 3 2 5 3 5 5 7 3 1 3 2 10 5 4 4 1 4 2 5 3 1 5 8 3 1 5 2 4 4 6 3 1 6 2 10 4 4 3 1 2 2 10 5 3 3 2 8 3 3 5 6 4 1 4 2 6 3 9 5 7 3 2 1 3 3 4 8 3 3 3 4 2 5 3 4 1 9 2 6 3 3 4 5 4 1 2 2 8 4 6 5 5 3 2 6 4 4 5 2 3 2 5 4 2 5 10 4 1 8 2 4 3 1 5 7 3 2 4 3 2 5 8 3 1 8 3 9 5 4 4 1 7 3 10 4 2 5 7 3 1 8 4 5 5 10 3 2 1 3 4 4 9 3 1 10 3 4 4 10 4 1 9 2 1 4 10 5 7 4 1 10 2 5 3 1 5 9 3 2 6 3 4 5 2 4 1 4 2 5 3 3 5 1 4 2 3 3 7 4 1 5 8 3 2 2 4 6 5 6 
30 4 1 2 2 6 3 9 4 5 4 1 7 2 3 3 10 5 9 4 1 6 3 2 4 2 5 8 4 1 10 2 7 3 10 4 3 3 1 1 3 7 5 3 3 1 7 3 9 5 5 4 1 7 3 7 4 8 5 6 4 1 5 2 6 3 10 4 5 4 2 9 3 1 4 1 5 8 4 1 4 2 9 3 5 4 8 3 1 7 2 5 3 7 4 1 7 2 5 3 10 4 9 3 1 2 4 10 5 5 4 1 10 2 4 3 7 4 4 3 2 5 3 5 4 5 3 2 4 3 10 4 10 4 2 2 3 5 4 4 5 8 3 1 2 3 4 4 4 3 2 8 3 5 5 4 3 2 9 3 5 5 3 4 1 3 3 9 4 8 5 9 3 1 8 3 1 5 6 3 1 5 2 10 4 3 4 1 3 2 4 3 9 4 7 3 1 1 2 1 4 2 4 1 8 2 6 3 6 5 3 3 1 7 3 5 5 2 3 2 4 4 8 5 1 3 2 4 3 4 5 7 3 3 7 4 9 5 1 
30 3 2 9 3 10 4 6 4 1 1 3 9 4 3 5 1 4 1 3 2 1 3 2 4 7 3 1 7 3 5 4 7 3 1 6 2 4 4 6 4 1 9 2 9 4 7 5 7 3 2 7 3 9 4 1 4 1 5 2 5 3 5 5 6 3 1 5 3 7 5 5 3 1 8 2 3 3 6 3 1 9 2 2 3 4 3 2 7 4 4 5 1 3 1 6 2 1 4 2 4 1 2 2 10 3 5 5 3 4 2 9 3 2 4 8 5 9 4 1 3 2 10 3 1 4 3 4 1 7 2 8 3 5 5 5 3 1 9 2 10 5 3 3 1 2 2 6 4 2 4 1 5 3 2 4 6 5 8 3 2 10 3 9 5 9 4 1 7 2 9 4 7 5 7 3 2 3 3 3 5 5 4 1 3 2 8 3 7 5 7 4 1 5 2 3 3 5 4 1 4 1 8 2 2 3 3 5 6 4 2 2 3 7 4 10 5 4 4 1 4 2 2 3 6 4 3 4 1 6 2 9 4 10 5 3 4 1 4 2 6 3 6 4 1 
30 3 1 8 2 4 3 8 4 1 4 2 3 4 1 5 2 4 1 7 2 7 4 2 5 6 3 1 9 3 3 5 9 3 2 9 3 3 4 1 4 1 5 2 10 3 6 4 7 4 1 2 2 6 3 10 4 6 4 1 10 2 7 4 10 5 9 3 1 4 2 10 5 8 4 1 3 2 5 4 1 5 8 4 1 2 2 9 3 7 4 7 3 2 8 3 7 5 10 3 1 2 2 6 5 2 4 1 1 2 3 4 6 5 8 3 1 4 2 9 5 9 3 1 7 2 6 4 6 4 1 10 2 9 4 10 5 7 4 1 6 2 5 4 7 5 7 3 1 5 2 10 3 2 4 1 1 2 8 3 7 4 10 4 1 7 3 5 4 4 5 6 4 1 10 2 6 3 9 4 9 3 2 6 3 2 5 1 4 1 2 2 5 3 6 5 4 3 1 1 2 5 3 10 4 2 3 3 6 4 2 5 7 3 2 4 3 5 4 2 3 2 4 4 9 5 4 3 1 7 2 10 5 1 3 2 3 3 2 4 9 
30 4 1 9 2 6 3 9 5 6 3 1 1 2 2 5 9 4 2 1 3 8 4 4 5 9 3 1 7 3 4 5 10 4 1 10 2 8 3 6 4 8 3 2 9 3 1 4 10 4 1 6 2 6 3 1 5 1 4 2 5 3 10 4 9 5 8 4 1 5 2 2 3 2 4 7 4 2 9 3 1 4 8 5 2 4 1 10 3 5 4 1 5 5 3 2 4 4 2 5 4 4 1 8 3 3 4 2 5 2 4 2 1 3 2 4 2 5 10 3 1 2 4 6 5 8 4 1 10 2 6 4 7 5 8 3 1 1 2 5 5 7 4 1 10 3 3 4 8 5 5 4 1 10 3 10 4 9 5 7 3 3 7 4 8 5 8 4 2 2 3 9 4 6 5 10 4 1 1 2 8 3 3 5 5 4 1 9 2 4 4 10 5 8 3 1 5 2 2 4 1 4 1 3 2 6 3 10 4 6 4 1 3 3 9 4 1 5 2 4 1 4 2 7 4 7 5 8 4 1 3 2 2 3 8 5 5 4 1 1 2 9 3 3 5 7 4 1 7 2 9 4 7 5 6 
30 3 1 8 3 8 4 10 3 2 6 4 4 5 8 4 1 7 2 6 3 3 4 6 3 1 8 4 3 5 7 4 1 6 2 7 3 1 5 2 3 2 9 3 1 5 1 3 1 5 3 7 4 10 3 1 6 4 4 5 9 4 2 4 3 1 4 7 5 9 3 1 8 3 7 5 4 3 1 7 2 5 5 9 3 2 8 3 8 5 5 3 3 3 4 2 5 7 4 1 6 2 2 3 6 4 7 3 3 3 4 7 5 8 4 1 3 2 2 3 9 4 9 3 3 7 4 8 5 5 3 2 10 3 6 4 8 3 3 5 4 3 5 3 4 1 1 2 9 4 5 5 5 3 1 2 3 1 5 8 4 1 6 3 3 4 9 5 10 4 1 6 3 3 4 5 5 8 3 3 8 4 8 5 4 4 2 5 3 10 4 4 5 7 4 1 7 2 2 3 10 5 1 3 2 3 3 7 4 6 3 1 2 2 7 5 5 3 1 2 3 7 4 1 4 1 8 2 2 4 4 5 4 
30 4 1 6 2 3 3 2 5 5 4 1 8 2 1 3 7 4 5 3 1 5 4 4 5 4 3 1 10 3 5 5 3 4 1 6 2 9 3 4 5 3 4 1 9 2 7 3 10 4 2 4 1 1 2 10 3 9 4 7 4 1 2 2 2 3 2 4 5 3 1 9 2 7 5 7 4 2 1 3 5 4 2 5 2 3 2 9 3 7 5 8 3 2 9 3 1 5 1 3 3 9 4 7 5 9 3 1 5 2 8 4 8 4 1 3 2 8 3 2 4 4 3 2 9 3 6 5 2 3 2 8 3 3 4 3 3 1 6 2 10 4 1 3 2 4 3 4 5 8 4 1 7 2 9 3 7 4 3 3 1 10 3 4 5 6 3 1 10 2 6 5 3 3 2 6 3 6 5 1 4 2 4 3 9 4 2 5 7 3 3 8 4 2 5 3 3 1 7 4 4 5 10 3 1 10 3 10 5 8 4 1 7 2 6 3 8 4 1 3 3 9 4 9 5 4 4 1 7 2 3 3 7 5 1 
30 3 1 1 3 6 4 4 4 1 5 3 4 4 2 5 2 3 1 6 2 10 4 2 4 1 2 2 6 4 5 5 7 4 1 6 2 9 3 1 4 10 4 1 9 2 3 3 9 4 10 4 1 6 3 10 4 3 5 10 3 2 8 3 1 4 5 3 2 6 4 5 5 9 4 1 4 3 1 4 10 5 10 3 3 5 4 5 5 3 3 2 6 4 6 5 6 3 2 1 4 1 5 10 3 1 2 3 10 4 2 3 3 8 4 1 5 10 4 1 8 2 7 3 10 4 5 3 1 10 3 9 4 4 3 2 5 3 8 5 5 3 1 7 3 10 5 4 4 1 5 2 9 4 9 5 2 4 1 6 3 3 4 5 5 4 3 1 8 2 10 5 9 4 1 4 2 4 3 5 4 9 4 1 4 2 6 3 5 4 2 3 1 6 3 6 4 3 4 1 2 2 3 4 10 5 9 4 1 5 2 6 3 5 5 3 4 2 1 3 2 4 6 5 4 4 1 9 2 5 4 4 5 4 4 1 9 3 4 4 9 5 3 
30 4 1 1 2 1 3 10 4 10 3 1 8 3 3 5 3 4 1 9 2 6 3 1 5 2 3 1 9 2 5 3 9 3 1 8 3 7 5 8 3 1 8 2 8 5 6 3 3 7 4 8 5 5 3 2 2 4 8 5 4 4 1 2 2 7 3 2 5 7 3 1 4 2 8 3 3 4 1 8 2 2 3 9 4 4 3 1 10 3 8 4 9 3 2 10 3 7 5 10 3 1 4 2 10 3 6 4 2 6 3 5 4 2 5 6 4 1 2 2 5 3 1 4 3 3 1 10 2 6 5 10 4 1 10 2 5 3 3 4 8 3 1 4 2 7 4 6 4 1 4 2 4 3 6 5 8 3 1 2 2 3 3 10 4 1 5 2 5 3 4 5 2 3 1 1 3 9 5 4 3 1 7 4 4 5 1 3 1 2 2 2 5 5 3 2 9 3 6 5 7 4 1 5 2 6 3 2 4 5 3 1 4 2 3 4 6 4 1 3 2 4 3 1 4 9 3 1 8 2 4 3 7 
30 4 1 3 2 10 3 6 5 1 3 2 8 3 2 4 9 3 1 3 2 10 5 3 4 1 8 3 7 4 8 5 9 4 2 6 3 10 4 2 5 3 3 1 10 2 6 5 8 3 1 7 2 5 4 2 4 1 9 2 4 4 3 5 9 3 3 5 4 8 5 6 3 3 10 4 8 5 6 3 3 6 4 8 5 5 4 1 5 2 6 3 4 4 6 3 1 7 4 7 5 9 4 1 8 2 2 4 1 5 9 4 2 7 3 3 4 10 5 6 3 1 4 2 7 3 6 3 1 4 2 3 5 5 4 1 8 2 10 3 7 4 6 3 1 2 2 3 3 2 4 1 3 2 9 3 8 5 6 3 3 1 4 1 5 3 4 1 8 2 8 4 7 5 8 3 3 6 4 8 5 3 3 1 4 4 2 5 4 3 1 4 4 1 5 10 3 2 2 3 7 5 4 4 1 10 2 9 4 2 5 4 3 1 6 2 10 5 7 3 2 1 4 5 5 4 3 2 10 3 6 4 2 
30 4 2 9 3 10 4 9 5 10 3 1 5 3 2 4 6 4 1 3 2 1 4 6 5 1 4 2 10 3 4 4 10 5 4 4 2 5 3 3 4 10 5 8 3 3 6 4 6 5 7 3 2 6 4 2 5 5 3 2 7 4 10 5 9 4 1 9 2 8 4 3 5 2 3 1 8 3 2 5 8 3 2 4 3 8 4 4 4 1 4 2 10 3 6 5 4 4 1 10 2 1 4 1 5 7 3 1 8 2 4 4 7 3 1 8 4 3 5 9 4 1 4 2 10 3 1 5 1 4 1 8 2 3 3 5 5 6 4 2 7 3 10 4 4 5 7 3 1 6 3 4 4 9 3 1 10 4 8 5 5 3 2 7 3 6 4 7 3 3 8 4 2 5 3 4 2 4 3 4 4 6 5 9 4 1 1 2 7 3 7 4 6 4 1 2 2 7 3 2 5 10 4 2 9 3 5 4 4 5 5 4 2 2 3 7 4 5 5 8 3 1 10 2 6 4 7 4 2 3 3 8 4 5 5 2 4 1 4 2 6 4 6 5 2 
30 3 2 2 3 8 5 10 4 1 9 3 2 4 2 5 10 4 1 9 2 1 3 6 4 3 4 1 3 2 8 3 10 5 2 3 1 8 2 4 4 1 3 2 8 4 4 5 10 4 1 10 2 5 3 4 5 7 3 2 8 4 8 5 10 4 1 1 2 3 4 1 5 4 4 1 1 3 5 4 7 5 8 3 2 8 3 10 4 1 4 1 2 3 7 4 9 5 8 4 2 8 3 10 4 9 5 7 3 1 1 2 5 3 3 3 1 5 2 9 3 5 3 2 7 4 8 5 7 3 2 1 3 9 4 7 3 2 3 4 6 5 7 4 2 8 3 5 4 7 5 10 3 1 5 3 9 5 2 3 1 6 2 3 3 5 4 2 6 3 4 4 1 5 2 3 2 10 4 2 5 4 3 1 6 2 7 3 7 3 2 1 3 4 5 5 4 1 4 2 2 3 2 4 9 4 1 4 2 1 3 1 4 4 4 1 1 2 6 3 8 5 10 4 2 7 3 1 4 8 5 2 4 1 9 2 9 4 6 5 7 
30 3 1 2 3 4 5 1 4 1 9 3 8 4 2 5 9 4 1 1 2 3 4 3 5 7 4 2 3 3 8 4 5 5 1 3 1 10 2 9 3 5 3 1 1 2 1 3 6 3 1 7 3 7 5 2 4 1 3 3 5 4 5 5 8 3 1 5 2 4 5 6 3 1 1 3 6 4 3 4 1 1 2 5 3 10 5 6 4 1 3 2 4 3 2 4 9 4 2 9 3 8 4 9 5 10 4 1 8 2 3 3 8 4 7 3 2 5 3 5 5 1 4 1 5 2 9 3 1 4 7 4 2 9 3 7 4 8 5 6 4 2 7 3 9 4 5 5 7 4 1 6 2 9 4 1 5 3 4 1 7 2 1 4 10 5 2 4 1 1 2 7 4 3 5 4 4 1 10 2 7 4 1 5 2 3 3 3 4 1 5 10 4 1 3 3 8 4 3 5 8 4 1 1 2 6 4 10 5 4 3 2 5 3 9 5 3 3 1 2 3 6 5 1 4 1 6 2 3 3 2 5 7 3 3 1 4 3 5 1 4 1 8 2 9 4 1 5 1 
30 4 1 1 2 4 3 4 5 3 4 1 8 3 3 4 1 5 6 4 1 3 2 1 3 4 5 4 3 2 1 4 9 5 9 3 1 4 4 9 5 1 4 2 4 3 8 4 10 5 5 4 1 1 2 7 3 4 4 6 4 1 6 3 8 4 3 5 4 4 2 3 3 4 4 7 5 6 3 1 5 3 2 5 6 4 1 4 2 4 3 3 5 3 4 1 10 2 2 3 6 4 9 4 1 6 2 4 3 1 5 2 4 1 5 3 5 4 8 5 5 3 1 10 2 10 5 5 4 2 4 3 1 4 9 5 8 3 1 1 3 9 4 3 3 3 8 4 10 5 1 4 2 10 3 9 4 7 5 3 4 1 10 2 10 4 6 5 10 4 1 7 2 3 3 6 5 4 3 1 9 2 10 5 7 4 1 10 2 7 3 9 5 5 3 1 9 2 5 3 2 3 1 9 3 1 4 1 4 2 1 3 4 4 8 5 6 3 2 5 4 3 5 10 4 1 8 3 1 4 9 5 8 3 1 7 2 8 5 4 3 2 4 4 10 5 7 
30 3 1 10 3 8 4 2 3 3 5 4 3 5 6 4 2 5 3 4 4 9 5 4 4 1 9 2 2 4 8 5 6 4 1 8 2 6 3 4 4 5 4 1 2 2 4 4 7 5 8 3 3 9 4 9 5 8 4 1 9 2 7 4 7 5 8 4 2 1 3 1 4 8 5 5 4 1 7 2 2 3 1 5 9 4 1 5 2 7 3 1 5 6 4 1 1 2 8 3 2 4 3 3 1 6 3 2 5 5 3 1 7 4 4 5 10 4 1 3 2 2 4 7 5 1 4 2 2 3 5 4 9 5 9 4 2 10 3 9 4 7 5 7 3 1 3 3 8 4 3 4 2 1 3 2 4 1 5 4 4 1 10 3 10 4 7 5 6 4 1 9 2 7 3 3 4 4 4 1 4 3 7 4 9 5 8 4 1 7 2 9 4 1 5 2 3 1 6 2 2 4 3 3 1 8 2 8 5 2 3 1 10 2 10 5 1 4 2 5 3 9 4 8 5 10 4 1 3 2 8 3 7 4 3 3 2 3 3 4 5 1 3 1 6 2 3 4 7 
30 4 1 9 2 8 3 6 4 3 4 1 3 3 2 4 7 5 7 3 2 3 3 1 4 3 3 2 2 3 1 4 3 4 1 10 2 6 4 10 5 6 3 3 6 4 5 5 5 4 2 6 3 2 4 2 5 1 3 1 1 3 4 5 9 4 1 9 2 2 3 1 5 2 4 1 4 2 10 3 1 4 2 4 1 4 3 9 4 2 5 1 4 1 3 2 10 3 6 4 10 4 1 1 3 3 4 2 5 5 3 1 4 2 3 5 4 4 2 7 3 4 4 2 5 9 3 2 2 3 3 4 9 3 1 5 2 9 4 8 4 1 6 3 3 4 4 5 10 4 1 10 2 7 3 6 4 5 3 1 5 3 4 5 3 4 1 4 2 5 4 10 5 4 4 2 10 3 4 4 8 5 1 3 1 8 2 8 5 2 3 2 10 4 8 5 8 4 1 10 2 7 3 3 4 3 4 1 2 3 2 4 9 5 8 4 1 8 3 2 4 1 5 9 3 1 8 3 3 5 9 4 1 8 3 8 4 4 5 5 3 1 9 3 8 5 2 
30 4 1 9 2 8 4 7 5 4 4 2 7 3 6 4 1 5 2 3 1 8 2 2 5 3 4 1 3 3 7 4 9 5 8 3 1 6 4 9 5 7 4 1 1 3 5 4 2 5 8 4 1 1 2 9 4 9 5 7 3 1 1 3 2 5 8 3 2 8 3 6 4 6 3 1 5 3 6 4 1 3 1 6 4 10 5 1 4 1 1 2 5 3 3 5 10 4 2 10 3 4 4 3 5 5 4 1 3 2 2 4 10 5 5 4 1 2 3 2 4 7 5 6 3 3 9 4 1 5 8 4 1 2 2 6 3 10 5 10 4 1 2 2 8 3 9 5 2 4 2 8 3 7 4 3 5 4 3 3 4 4 8 5 5 4 1 8 2 9 4 10 5 3 3 1 4 2 1 3 2 4 1 3 2 9 3 10 4 9 3 1 9 2 1 5 5 3 1 8 2 5 4 1 4 1 4 2 10 3 7 4 10 4 1 5 2 3 3 2 4 1 4 1 5 3 1 4 6 5 5 3 2 4 4 1 5 8 3 2 9 4 4 5 1 
30 4 1 2 2 5 3 10 4 2 4 1 8 3 3 4 4 5 2 4 1 8 2 5 3 1 5 2 3 3 8 4 4 5 10 3 1 7 2 1 5 8 4 1 5 2 4 3 7 5 6 3 2 4 4 2 5 1 4 1 9 2 2 4 1 5 2 3 1 2 4 5 5 10 4 1 3 3 4 4 5 5 2 4 2 3 3 4 4 3 5 5 4 1 7 2 3 3 5 4 9 4 1 3 2 10 3 9 4 2 3 1 1 4 9 5 9 3 2 4 3 7 5 3 3 1 3 4 2 5 6 3 1 6 4 4 5 10 4 2 6 3 4 4 6 5 9 3 2 5 3 5 4 7 3 1 9 4 6 5 3 4 1 8 3 8 4 8 5 3 3 2 5 3 3 4 6 4 1 2 3 1 4 6 5 4 4 2 5 3 1 4 3 5 3 3 2 8 3 4 5 8 4 2 7 3 6 4 9 5 9 3 1 6 2 1 4 1 4 1 6 2 5 4 2 5 6 3 2 2 3 6 5 8 4 1 2 2 9 3 7 5 7 
30 3 2 3 3 9 5 6 3 1 4 3 2 5 2 3 3 4 4 7 5 6 4 1 5 3 10 4 7 5 1 3 2 5 3 8 5 8 4 1 1 2 4 3 4 5 3 4 1 1 3 1 4 1 5 5 4 1 9 2 9 3 5 4 4 4 2 6 3 10 4 8 5 9 3 2 4 4 1 5 7 3 1 9 4 3 5 4 3 1 6 3 6 5 7 4 2 8 3 7 4 6 5 6 4 1 3 2 4 3 6 4 7 3 1 4 3 2 4 8 4 1 8 2 1 4 3 5 10 3 2 1 4 6 5 9 3 1 6 2 4 3 10 4 1 6 2 7 3 6 5 8 4 1 1 2 8 3 6 5 9 4 1 5 3 6 4 10 5 9 3 1 9 2 1 4 8 3 1 5 4 7 5 2 3 1 1 3 3 5 2 4 1 1 2 1 4 1 5 6 4 1 6 2 9 4 1 5 7 4 1 7 2 4 3 5 4 6 3 2 1 3 2 5 2 3 1 8 3 9 5 9 3 1 3 3 2 4 6 
30 4 1 4 2 9 4 8 5 7 4 1 1 2 9 3 8 4 4 3 1 2 3 4 5 4 4 1 6 3 5 4 3 5 9 3 1 5 2 2 4 10 4 1 8 2 10 3 8 5 7 3 3 6 4 7 5 7 3 2 7 3 8 5 7 3 1 9 2 10 4 4 4 1 5 2 1 3 10 5 2 3 2 6 3 3 5 6 3 3 8 4 6 5 7 3 1 9 2 1 4 9 3 1 8 4 8 5 8 4 2 5 3 9 4 5 5 9 3 1 8 4 7 5 8 4 1 3 3 9 4 5 5 7 4 1 1 2 4 4 10 5 8 4 1 4 2 1 4 5 5 4 3 3 6 4 4 5 3 4 2 4 3 7 4 7 5 10 3 2 1 4 9 5 5 3 1 3 2 9 3 10 4 2 6 3 1 4 9 5 6 3 1 8 2 8 5 4 4 1 6 3 1 4 3 5 10 3 1 10 2 2 3 6 3 1 10 3 10 5 4 3 1 2 2 5 4 10 3 1 1 4 6 5 5 
30 3 2 3 3 9 5 7 3 1 10 2 10 3 4 4 2 2 3 2 4 10 5 1 4 1 1 2 4 3 9 4 4 3 1 9 2 3 5 7 4 1 4 2 8 4 5 5 5 3 1 4 2 9 5 1 3 1 7 3 10 4 6 4 1 8 2 6 3 3 4 7 4 2 5 3 1 4 4 5 7 3 1 4 4 7 5 4 3 1 4 2 3 4 2 4 1 6 2 6 3 3 5 1 4 1 7 2 10 3 9 4 9 4 1 2 2 8 4 2 5 7 4 1 8 2 10 3 10 5 9 4 1 6 3 4 4 8 5 3 3 2 2 3 8 5 8 4 2 4 3 7 4 7 5 1 4 1 5 2 2 4 2 5 8 4 1 1 2 2 4 7 5 1 4 1 9 2 3 3 7 5 2 4 1 7 2 5 4 5 5 9 3 1 3 2 6 5 4 4 1 6 2 10 3 10 5 9 3 1 7 3 6 5 10 3 1 10 2 3 5 2 3 1 2 3 7 5 3 4 1 4 2 2 4 5 5 7 3 1 8 2 7 4 3 
30 4 1 9 2 10 3 1 4 2 4 1 2 3 9 4 7 5 1 3 1 3 2 10 3 8 4 1 3 2 1 3 6 4 5 3 1 8 3 4 4 6 3 1 5 2 9 3 1 3 1 9 2 3 5 5 4 1 1 2 2 4 8 5 4 3 2 7 3 8 4 6 3 1 4 3 4 5 9 4 1 2 2 9 4 3 5 9 3 1 4 2 5 4 10 4 1 5 2 2 3 2 4 10 3 1 9 2 2 4 4 4 1 5 3 9 4 8 5 8 4 1 7 3 10 4 7 5 2 4 1 3 3 3 4 6 5 8 4 2 10 3 5 4 6 5 3 3 1 7 2 9 5 8 4 1 10 2 10 3 5 5 5 4 1 3 2 4 3 8 5 8 3 1 10 4 1 5 10 4 1 5 2 10 4 5 5 3 4 1 7 3 10 4 1 5 8 4 1 2 2 9 4 6 5 7 3 2 5 4 5 5 6 3 2 5 3 1 4 5 4 1 9 2 3 3 3 4 8 4 1 2 2 6 4 9 5 5 4 1 9 2 4 3 9 5 2 
30 4 2 7 3 10 4 7 5 5 3 2 6 4 7 5 2 4 1 6 2 4 3 1 5 10 3 3 10 4 9 5 2 3 1 10 3 8 5 10 4 1 5 2 8 3 7 5 8 4 1 3 2 2 3 7 5 3 4 1 7 2 2 3 5 5 7 4 1 5 2 9 3 10 4 5 3 1 2 2 6 4 4 3 2 9 4 7 5 4 3 2 10 3 10 4 10 3 1 6 2 9 5 4 4 1 3 2 9 3 10 4 6 4 1 2 2 4 4 10 5 2 3 1 9 2 7 4 10 3 1 7 3 7 5 5 4 1 8 2 6 4 8 5 5 4 1 7 2 8 4 10 5 4 4 1 6 2 9 3 1 4 5 4 1 3 2 10 3 10 4 9 4 2 3 3 7 4 3 5 7 4 2 3 3 2 4 2 5 2 4 1 9 2 5 3 9 4 7 4 1 8 2 3 3 5 5 7 3 1 8 2 6 4 10 4 2 10 3 6 4 8 5 10 3 3 1 4 5 5 5 3 2 8 4 10 5 10 4 1 6 2 8 3 9 4 3 
30 4 1 5 3 1 4 10 5 1 4 2 10 3 5 4 3 5 3 4 2 2 3 8 4 9 5 7 3 1 8 2 9 3 6 4 1 2 2 1 3 10 4 3 3 1 6 2 5 4 5 3 1 3 2 5 4 6 4 2 7 3 4 4 6 5 6 3 2 6 3 2 4 9 3 1 6 2 10 5 7 3 2 3 3 9 4 8 4 1 5 3 9 4 8 5 5 3 1 2 3 1 5 9 4 1 7 2 2 4 9 5 1 4 2 1 3 8 4 5 5 3 3 1 3 2 8 4 6 3 1 4 2 5 5 9 4 1 6 2 2 4 7 5 4 3 2 2 3 10 4 1 4 1 10 2 8 3 5 4 7 3 1 7 4 7 5 10 4 1 9 2 8 4 1 5 8 3 1 2 3 5 4 9 4 1 7 3 2 4 8 5 4 4 1 7 2 1 4 3 5 3 4 2 1 3 5 4 5 5 7 4 1 7 2 6 3 3 5 9 3 1 3 2 4 4 5 4 1 6 3 9 4 1 5 6 3 1 6 3 10 5 5 
30 3 2 5 4 1 5 1 3 2 10 3 9 5 9 4 2 1 3 10 4 2 5 9 4 1 2 2 7 3 10 5 2 3 3 8 4 10 5 7 4 1 9 2 4 4 4 5 4 3 1 7 4 3 5 5 3 1 9 2 7 4 8 3 1 7 2 1 3 5 4 1 6 2 8 4 1 5 7 4 1 6 2 3 3 10 5 9 4 2 1 3 8 4 7 5 1 3 1 3 2 10 5 8 3 2 6 3 6 5 3 4 1 2 3 10 4 3 5 2 3 2 10 3 6 4 4 4 1 4 2 10 3 7 4 3 4 1 7 2 7 3 4 4 9 4 1 9 2 5 3 1 4 1 4 1 5 3 7 4 5 5 8 4 1 2 3 6 4 8 5 6 4 1 4 2 6 4 1 5 1 4 1 8 2 7 4 10 5 6 4 2 2 3 4 4 10 5 5 3 3 8 4 1 5 3 4 1 6 3 9 4 7 5 6 4 1 6 2 3 3 4 5 6 3 1 2 2 2 5 7 4 1 2 3 4 4 3 5 2 3 1 1 3 10 4 5 
30 4 1 9 2 2 3 3 4 6 4 1 5 2 8 3 7 4 3 3 3 9 4 7 5 8 4 2 2 3 8 4 10 5 4 4 1 9 2 9 4 7 5 3 3 1 3 3 5 5 7 4 2 6 3 6 4 6 5 10 4 1 1 2 5 3 2 4 10 4 1 5 3 2 4 5 5 5 3 1 3 4 10 5 8 4 1 2 2 9 3 9 4 5 4 2 10 3 6 4 1 5 2 3 1 4 2 8 4 10 4 1 5 2 1 4 10 5 1 4 1 1 2 8 3 8 4 10 3 2 5 3 6 4 6 4 1 1 2 5 3 8 5 10 4 1 7 2 1 3 7 5 1 4 2 5 3 3 4 2 5 2 4 1 1 2 3 4 3 5 9 3 1 4 4 2 5 4 3 1 3 2 3 3 5 4 1 10 2 5 3 4 5 3 3 2 10 3 7 4 10 3 1 6 2 9 3 10 4 1 8 2 9 3 4 5 7 3 1 10 2 1 3 2 3 3 3 4 7 5 2 4 1 2 2 8 4 8 5 2 4 2 8 3 7 4 6 5 6 
30 3 1 3 3 5 5 4 3 1 6 3 10 5 10 4 1 6 2 7 3 9 4 5 3 2 2 4 6 5 10 3 2 9 3 10 4 10 3 2 6 4 5 5 4 3 2 9 3 8 5 5 4 1 3 2 4 3 6 5 2 3 1 10 4 3 5 8 4 1 10 2 4 3 9 4 2 3 2 8 3 5 5 4 3 2 6 3 1 5 9 4 1 1 3 3 4 3 5 5 4 1 2 3 7 4 3 5 8 4 1 6 2 4 4 8 5 10 4 2 10 3 1 4 8 5 10 3 2 3 4 2 5 9 3 1 9 2 7 5 6 3 1 6 2 10 5 9 3 3 7 4 7 5 5 3 1 7 2 3 4 7 4 1 1 2 6 4 3 5 2 4 1 7 2 4 3 1 5 5 4 1 5 2 6 3 8 5 7 3 3 4 4 10 5 10 4 1 2 2 2 4 3 5 6 4 2 1 3 4 4 4 5 4 4 2 4 3 4 4 1 5 4 3 2 9 3 4 4 6 3 1 4 2 1 5 10 
30 4 1 7 3 4 4 4 5 6 3 1 2 2 3 4 7 3 1 7 2 2 4 1 4 1 4 2 4 3 7 5 5 4 2 9 3 4 4 7 5 6 3 1 6 3 7 4 6 3 1 5 2 7 5 6 3 1 7 2 6 3 2 4 1 4 2 9 3 3 5 7 3 2 8 3 8 4 1 3 1 9 2 10 3 8 4 1 6 2 4 3 6 4 7 4 2 5 3 6 4 9 5 1 3 1 1 3 1 5 7 4 1 9 2 2 4 1 5 9 4 1 2 2 6 3 4 4 1 3 1 9 3 9 4 10 3 1 2 4 10 5 5 3 2 6 3 9 5 3 4 1 2 2 10 3 2 5 5 4 1 3 2 5 3 5 4 6 3 1 4 3 5 4 7 4 1 6 2 7 3 1 5 2 3 1 9 2 10 3 3 3 1 3 4 2 5 10 4 1 1 2 2 4 8 5 10 4 1 3 3 10 4 10 5 7 4 1 2 2 4 3 5 5 5 3 1 1 2 1 3 6 4 1 10 2 5 3 4 4 10 
0 3 3 4 6 
0 3 3 4 6 
0 3 3 4 6 
3 2 0 1 3 5 12 16 
3 0 1 2 3 5 12 16 
2 3 4 1 7 
3 2 1 0 3 7 12 16 
2 5 6 3 8 10 19 
1 7 3 9 15 21 
1 8 3 11 13 17 
1 7 3 11 13 15 
2 9 10 3 14 18 20 
3 6 3 4 3 13 15 19 
3 9 12 10 3 14 18 28 
2 13 11 2 22 26 
3 12 8 10 3 17 20 28 
3 6 4 3 3 17 18 19 
3 15 9 16 3 22 25 27 
3 11 13 16 3 23 25 26 
3 12 16 7 3 20 21 26 
3 11 15 19 2 22 25 
2 8 19 3 23 27 28 
3 14 20 17 2 23 29 
3 22 18 21 1 24 
1 23 0 
3 20 18 17 1 29 
3 19 14 18 1 27 
3 17 26 21 1 29 
3 15 21 13 0 
3 22 25 27 0 
0 3 32 34 41 
0 3 32 34 41 
2 30 31 3 33 36 46 
1 32 3 35 38 51 
2 31 30 3 35 36 38 
2 33 34 2 37 39 
2 32 34 3 37 39 51 
2 36 35 3 40 45 56 
2 34 33 1 39 
3 36 38 35 3 40 45 56 
2 39 37 2 42 49 
2 31 30 3 42 45 46 
2 40 41 3 43 44 50 
1 42 3 47 53 55 
1 42 2 47 57 
3 39 37 41 3 47 49 50 
2 32 41 3 48 49 50 
3 43 45 44 3 48 52 54 
2 47 46 0 
3 40 46 45 3 52 53 59 
3 42 46 45 3 53 55 58 
2 33 36 3 52 54 55 
3 47 49 51 0 
3 50 43 49 1 54 
3 53 47 51 0 
3 43 51 50 2 57 59 
2 39 37 2 57 59 
3 56 44 55 0 
1 50 0 
3 49 55 56 0 
0 3 61 63 67 
1 60 3 62 68 69 
1 61 3 64 66 70 
1 60 3 64 66 68 
2 63 62 3 71 73 85 
0 3 66 67 68 
3 62 63 65 3 72 75 80 
2 60 65 3 69 70 73 
3 63 61 65 3 70 71 73 
2 67 61 3 71 76 82 
3 67 68 62 3 72 74 75 
3 68 69 64 3 72 74 79 
3 70 71 66 2 77 81 
3 67 68 64 3 74 75 77 
3 71 73 70 2 78 80 
3 73 66 70 3 76 79 82 
2 69 75 2 78 84 
2 73 72 2 78 84 
3 77 74 76 2 87 88 
2 71 75 3 81 86 88 
2 66 74 3 81 84 87 
3 79 80 72 1 89 
2 69 75 2 86 87 
0 2 85 88 
3 76 77 80 1 86 
2 64 83 1 89 
3 82 84 79 0 
3 82 80 78 1 89 
3 83 78 79 0 
3 81 87 85 0 
0 3 91 93 96 
1 90 3 94 99 102 
0 3 93 96 103 
2 90 92 3 94 99 102 
2 93 91 3 95 97 100 
1 94 3 98 101 104 
2 92 90 3 97 99 100 
2 94 96 3 98 101 104 
2 97 95 3 105 112 116 
3 96 93 91 2 105 116 
2 94 96 3 101 105 112 
3 97 100 95 3 106 113 116 
2 93 91 3 107 108 109 
1 92 3 104 106 112 
3 97 103 95 3 107 108 109 
3 100 99 98 2 106 108 
3 103 101 105 3 107 109 111 
3 106 104 102 3 110 114 115 
3 105 104 102 3 110 111 113 
3 106 102 104 3 110 114 117 
3 109 108 107 0 
2 106 108 2 115 118 
3 103 98 100 1 113 
3 101 108 112 3 114 115 118 
3 109 113 107 0 
3 111 107 113 2 117 119 
3 101 98 99 2 117 118 
3 109 115 116 0 
3 116 113 111 0 
1 115 0 
0 3 121 128 132 
1 120 2 122 143 
1 121 3 123 130 139 
1 122 3 124 134 141 
1 123 2 125 142 
1 124 3 126 129 131 
1 125 2 127 135 
1 126 3 136 138 146 
1 120 3 129 130 135 
2 125 128 3 137 138 148 
2 122 128 3 131 134 136 
2 125 130 2 137 148 
1 120 3 134 136 139 
0 3 135 138 139 
3 123 132 130 3 140 142 145 
3 126 128 133 2 146 149 
3 132 127 130 3 137 145 148 
3 129 136 131 2 140 144 
3 127 129 133 1 140 
3 133 122 132 2 141 142 
3 137 134 138 1 147 
2 123 139 2 144 145 
3 139 124 134 2 144 146 
1 121 1 147 
3 137 141 142 2 147 149 
3 141 136 134 0 
3 127 142 135 0 
3 140 144 143 0 
3 131 136 129 1 149 
3 144 135 148 0 
0 3 151 153 156 
1 150 3 152 161 170 
1 151 3 157 158 164 
1 150 3 158 160 161 
0 3 156 157 170 
0 3 156 157 170 
3 150 154 155 3 158 160 161 
3 154 155 152 3 159 160 172 
3 156 152 153 3 159 163 172 
2 158 157 2 162 165 
3 157 156 153 3 162 163 173 
3 156 151 153 3 162 163 164 
3 159 161 160 3 166 168 178 
3 160 158 161 3 165 166 178 
2 152 161 3 165 166 173 
3 163 164 159 3 167 168 171 
3 162 163 164 3 167 169 171 
2 166 165 3 174 176 179 
2 165 162 1 169 
2 166 168 3 174 176 179 
3 155 154 151 3 171 172 178 
3 166 165 170 2 175 179 
3 157 158 170 3 173 174 176 
3 164 160 172 1 175 
3 172 167 169 1 175 
3 174 171 173 1 177 
3 167 169 172 1 177 
2 175 176 0 
3 170 162 163 0 
3 169 167 171 0 
0 3 182 185 186 
0 3 182 185 186 
2 181 180 3 183 187 188 
1 182 3 189 192 193 
0 3 185 186 192 
3 181 180 184 3 187 188 193 
3 181 184 180 3 187 188 193 
3 186 182 185 2 189 201 
3 185 182 186 3 189 194 201 
3 188 183 187 3 190 191 203 
1 189 3 195 196 198 
1 189 3 195 196 198 
2 184 183 3 194 201 203 
3 185 183 186 3 194 195 203 
3 188 193 192 3 196 197 198 
3 193 190 191 3 197 199 200 
3 191 194 190 2 199 200 
2 195 194 2 204 208 
3 191 194 190 3 199 200 206 
3 198 195 196 3 202 204 208 
3 195 198 196 3 202 205 208 
3 187 192 188 3 202 205 206 
3 200 201 199 1 207 
3 193 192 189 2 204 206 
3 199 197 203 2 205 207 
3 200 204 201 1 209 
3 203 201 198 1 207 
3 202 204 206 1 209 
3 200 197 199 1 209 
3 207 205 208 0 
0 3 211 212 234 
1 210 3 214 216 217 
1 210 3 214 216 228 
0 3 214 216 217 
3 211 213 212 3 218 219 224 
0 3 217 218 219 
3 211 213 212 3 218 219 224 
3 215 211 213 3 220 224 226 
3 214 215 216 3 220 226 233 
3 214 216 215 3 220 226 233 
3 218 219 217 1 221 
1 220 3 222 223 229 
1 221 3 225 227 231 
1 221 3 225 227 231 
3 214 216 217 3 225 230 232 
3 222 223 224 0 
3 218 217 219 3 227 229 237 
3 223 222 226 3 230 232 239 
1 212 3 229 231 233 
3 221 226 228 3 230 232 235 
3 227 229 224 1 236 
3 223 228 222 2 236 237 
3 229 227 224 1 238 
3 228 219 218 2 235 238 
1 210 3 235 237 238 
3 233 229 234 2 236 239 
3 231 235 230 0 
3 231 226 234 1 239 
3 234 232 233 0 
3 237 235 227 0 
0 3 241 256 268 
1 240 3 243 244 245 
0 3 243 244 245 
2 241 242 3 246 248 249 
2 241 242 3 246 248 249 
2 241 242 3 246 248 249 
3 244 245 243 3 247 251 264 
1 246 3 250 253 254 
3 245 244 243 3 250 251 253 
3 243 244 245 3 250 251 253 
3 247 249 248 3 252 255 258 
3 246 248 249 3 252 254 255 
2 251 250 3 259 262 265 
3 247 248 249 3 255 257 262 
2 251 247 3 257 262 266 
3 251 253 250 3 259 263 265 
1 240 2 257 264 
3 256 253 254 3 258 259 267 
2 250 257 3 260 261 263 
3 257 252 255 2 260 261 
2 258 259 1 269 
2 259 258 1 269 
3 254 253 252 2 263 267 
3 258 262 255 0 
2 256 246 3 265 267 269 
3 264 255 252 1 266 
2 254 265 0 
3 264 257 262 0 
1 240 0 
3 264 260 261 0 
0 3 272 273 274 
0 2 272 274 
2 270 271 3 276 278 279 
1 270 3 277 278 279 
2 271 270 3 276 277 279 
0 3 276 277 278 
3 274 272 275 3 281 282 283 
3 274 275 273 3 280 281 282 
3 275 272 273 3 280 284 285 
3 272 274 273 3 280 281 282 
3 278 277 279 3 283 288 289 
3 277 276 279 3 284 285 286 
3 279 276 277 3 284 285 286 
2 276 280 3 286 291 292 
3 278 282 281 3 287 288 289 
3 282 278 281 3 287 288 289 
3 283 281 282 3 287 290 297 
3 286 285 284 1 293 
3 280 284 285 3 290 291 292 
3 280 285 284 3 290 291 292 
3 288 286 289 3 294 295 299 
3 289 283 288 2 293 297 
3 283 288 289 1 297 
2 291 287 3 294 295 299 
2 293 290 1 296 
2 293 290 1 296 
2 295 294 1 298 
3 291 286 292 2 298 299 
2 296 297 0 
3 293 290 297 0 
0 3 301 305 310 
1 300 3 302 303 309 
1 301 3 304 306 307 
1 301 3 304 306 307 
2 302 303 3 308 312 314 
1 300 3 306 307 309 
3 303 305 302 3 308 312 314 
3 302 305 303 3 308 313 318 
3 307 306 304 3 315 320 322 
2 305 301 2 317 329 
1 300 3 312 313 317 
0 3 313 315 320 
3 306 310 304 3 315 318 321 
3 307 310 311 3 314 319 329 
3 313 304 306 3 321 322 324 
3 311 312 308 3 319 326 329 
0 3 317 319 321 
3 309 310 316 3 318 320 322 
3 312 317 307 2 324 326 
3 316 315 313 3 323 325 327 
3 317 311 308 2 323 324 
3 314 312 316 3 323 325 326 
3 314 317 308 2 325 328 
3 321 319 320 1 328 
3 314 318 320 1 327 
3 321 322 319 0 
3 315 318 321 1 327 
3 326 319 324 1 328 
3 322 327 323 0 
3 309 315 313 0 
0 3 331 334 335 
1 330 3 336 337 338 
0 3 334 335 336 
0 3 334 335 336 
3 332 330 333 3 337 338 343 
3 332 330 333 3 337 338 343 
3 331 333 332 3 339 340 341 
3 335 331 334 2 339 341 
3 334 331 335 3 339 340 341 
3 336 337 338 3 342 344 346 
2 338 336 1 344 
3 337 336 338 3 342 344 346 
2 341 339 2 345 347 
2 335 334 3 345 352 356 
3 341 339 340 3 345 347 349 
3 342 343 344 3 348 351 353 
2 339 341 3 347 348 349 
3 342 344 346 2 351 352 
2 345 346 3 350 354 359 
2 344 346 3 350 351 352 
2 349 348 3 355 357 358 
3 345 349 347 3 354 357 358 
3 343 349 347 3 353 354 359 
2 345 352 3 355 357 358 
3 348 352 351 1 355 
3 353 354 350 0 
1 343 1 359 
3 350 351 353 0 
3 353 351 350 0 
3 352 356 348 0 
0 3 362 363 367 
0 3 362 363 367 
2 360 361 3 365 368 369 
2 360 361 3 365 368 369 
0 2 365 368 
3 364 362 363 3 366 370 371 
1 365 3 372 373 374 
2 361 360 3 369 372 376 
3 364 363 362 3 370 371 372 
3 363 367 362 2 370 371 
3 369 368 365 3 373 385 386 
3 365 368 369 3 373 385 386 
3 368 367 366 3 375 377 379 
3 371 370 366 3 375 377 379 
1 366 3 375 385 386 
3 373 372 374 1 378 
1 367 3 377 378 379 
3 373 372 376 3 380 382 383 
2 375 376 3 380 382 383 
3 376 373 372 3 380 382 383 
3 378 379 377 2 381 387 
1 380 3 384 388 389 
3 378 377 379 2 384 387 
3 377 379 378 3 384 387 388 
3 382 381 383 0 
3 374 370 371 2 388 389 
3 371 370 374 1 389 
3 382 383 380 0 
3 381 383 385 0 
3 381 386 385 0 
0 3 392 393 395 
0 3 392 393 395 
2 390 391 3 394 396 397 
2 390 391 2 394 397 
2 393 392 3 399 400 403 
2 390 391 3 396 397 400 
2 392 395 3 399 401 407 
3 392 393 395 3 399 401 403 
0 3 400 403 407 
3 394 396 397 3 402 404 405 
3 395 394 398 2 401 405 
3 400 397 396 3 404 410 411 
1 399 3 406 410 411 
3 398 394 397 2 404 405 
3 399 401 403 3 406 408 418 
3 399 400 403 3 406 408 410 
3 404 402 405 2 409 414 
2 398 396 3 408 409 411 
3 404 407 405 3 413 414 415 
2 406 407 3 412 413 415 
3 401 405 402 3 412 413 414 
3 401 402 407 3 412 415 418 
3 409 411 410 2 416 419 
3 409 408 410 2 416 417 
3 406 410 408 2 416 417 
3 408 409 411 1 417 
3 414 412 413 0 
3 414 415 413 1 419 
2 404 411 1 419 
3 412 418 417 0 
0 3 421 422 429 
1 420 3 423 427 428 
1 420 3 423 427 428 
2 422 421 3 424 425 435 
1 423 3 430 431 432 
1 423 3 431 432 439 
0 3 427 428 429 
3 422 426 421 3 430 431 434 
3 426 422 421 3 432 434 435 
2 420 426 3 430 434 435 
3 424 429 427 3 433 439 445 
3 425 427 424 2 436 438 
3 424 425 428 3 433 436 438 
2 432 430 1 437 
3 428 427 429 2 436 445 
3 428 423 429 3 437 438 439 
3 434 432 431 1 437 
3 436 433 435 3 440 441 442 
3 435 432 431 3 440 441 442 
3 425 430 435 3 440 441 442 
3 437 439 438 3 444 447 448 
3 437 439 438 3 446 448 449 
3 438 437 439 2 444 446 
0 3 444 445 446 
3 440 443 442 1 449 
3 430 443 434 3 447 448 449 
3 441 443 442 1 447 
3 446 440 445 0 
3 440 445 441 0 
3 444 441 445 0 
0 3 452 453 455 
0 3 452 453 455 
2 450 451 3 456 457 458 
2 450 451 3 456 457 458 
0 3 455 457 458 
3 450 451 454 3 456 459 468 
3 455 453 452 3 460 461 462 
3 452 453 454 3 459 461 462 
3 454 452 453 3 459 461 462 
3 455 458 457 3 460 463 465 
2 459 456 3 464 466 467 
3 456 458 457 3 463 465 467 
3 456 458 457 3 463 465 467 
3 459 462 461 3 464 466 469 
2 463 460 2 470 471 
3 462 461 459 3 466 470 474 
3 465 463 460 2 471 479 
3 462 460 461 3 469 471 474 
1 455 3 469 474 475 
3 467 463 468 1 470 
3 469 464 465 3 472 477 479 
3 464 467 466 2 472 475 
2 471 470 1 473 
1 472 1 476 
3 467 465 468 3 476 477 479 
2 468 471 2 476 477 
3 473 474 475 1 478 
3 475 470 474 1 478 
2 476 477 0 
3 470 474 466 0 
0 3 481 487 494 
1 480 3 483 485 486 
0 3 483 485 486 
2 481 482 2 488 499 
0 3 485 486 487 
3 481 484 482 3 488 489 490 
3 481 482 484 3 488 489 490 
2 484 480 3 489 490 491 
3 483 485 486 3 491 492 496 
3 487 486 485 3 492 493 496 
3 485 487 486 3 492 493 498 
2 487 488 3 493 498 506 
3 488 490 489 3 495 497 500 
3 491 489 490 3 495 497 501 
1 480 3 495 496 497 
3 493 494 492 3 502 503 504 
3 494 488 489 3 498 500 501 
3 494 493 492 3 503 505 509 
3 490 491 496 2 502 505 
1 483 3 500 501 505 
3 496 499 492 3 503 504 506 
3 493 499 496 2 502 504 
3 498 501 495 2 508 509 
3 495 500 497 1 508 
3 495 500 501 1 507 
3 499 497 498 1 507 
2 491 500 2 507 509 
3 505 506 504 1 508 
3 507 502 503 0 
3 497 502 506 0 
0 3 512 513 515 
0 3 512 513 515 
2 510 511 2 517 518 
2 510 511 3 516 517 518 
0 3 515 518 535 
3 510 511 514 3 516 517 523 
2 515 513 3 519 520 521 
3 515 513 512 3 519 520 521 
3 514 512 513 3 519 520 521 
3 518 516 517 3 522 524 525 
3 516 517 518 3 522 524 526 
3 518 517 516 3 522 525 526 
3 519 521 520 3 527 528 531 
1 515 3 524 525 526 
3 520 523 519 2 528 533 
3 521 519 523 3 527 531 533 
3 521 520 523 3 527 528 531 
3 522 526 525 3 529 530 532 
3 522 526 524 3 529 530 532 
2 528 527 3 534 536 538 
2 527 528 3 534 537 538 
3 522 526 525 3 532 534 537 
3 527 531 528 1 539 
2 525 524 2 536 538 
3 530 531 529 0 
1 514 1 536 
3 529 535 533 1 537 
3 530 536 531 1 539 
3 529 530 533 1 539 
3 537 538 532 0 
0 3 541 542 552 
1 540 3 543 544 555 
1 540 3 543 544 555 
2 542 541 3 545 553 554 
2 542 541 3 545 553 554 
2 543 544 3 547 548 551 
0 3 547 548 551 
2 545 546 2 549 557 
2 546 545 2 549 557 
2 548 547 3 556 559 561 
0 3 551 552 553 
3 545 546 550 3 558 559 568 
2 540 550 3 554 555 556 
3 543 550 544 3 556 563 568 
3 544 552 543 1 558 
3 541 552 542 3 557 558 559 
3 553 549 552 3 560 565 566 
3 547 548 555 3 561 562 568 
3 555 554 551 3 560 561 562 
3 555 549 551 3 560 562 565 
3 556 559 558 2 564 567 
3 558 557 549 2 563 565 
3 557 559 558 2 563 567 
3 561 553 562 2 564 566 
2 563 560 1 569 
3 561 556 559 1 567 
2 556 563 1 569 
3 562 565 560 1 569 
3 557 551 553 0 
3 567 566 564 0 
0 3 572 573 574 
0 3 572 573 574 
2 571 570 3 575 576 577 
2 571 570 3 575 576 577 
2 570 571 3 575 576 577 
3 572 573 574 3 578 581 585 
3 573 572 574 3 578 581 585 
3 574 573 572 3 578 581 585 
3 576 577 575 3 579 580 582 
1 578 3 583 584 586 
1 578 3 583 584 586 
3 575 576 577 3 582 590 593 
2 578 581 3 583 584 596 
3 579 582 580 3 589 591 592 
3 580 582 579 3 588 589 591 
3 575 577 576 3 586 592 593 
3 579 585 580 3 588 590 591 
0 3 588 589 590 
3 587 586 584 3 594 597 598 
3 584 583 587 2 594 597 
3 586 581 587 2 595 596 
3 584 586 583 1 598 
2 583 585 2 595 598 
2 581 585 3 594 596 597 
3 589 593 588 1 595 
3 594 590 592 1 599 
3 582 593 590 1 599 
3 593 588 589 1 599 
3 588 592 591 0 
3 595 596 597 0 
0 3 601 602 611 
1 600 3 603 605 607 
1 600 3 603 605 620 
2 602 601 3 608 609 610 
0 3 605 607 608 
3 601 604 602 3 609 610 612 
0 3 607 608 611 
3 601 604 606 3 609 610 612 
3 604 606 603 3 613 615 616 
3 603 607 605 3 613 614 624 
3 607 603 605 3 614 615 616 
2 600 606 3 612 614 615 
3 607 605 611 3 613 616 617 
3 609 612 608 3 619 623 626 
3 609 611 610 2 618 623 
3 610 608 611 3 617 618 621 
3 610 608 612 2 618 624 
2 612 615 2 619 622 
3 614 616 615 3 619 622 626 
3 618 613 617 2 625 629 
1 602 3 621 624 629 
2 615 620 3 622 623 626 
3 621 617 618 2 625 628 
3 614 621 613 1 627 
3 616 609 620 2 625 628 
3 619 624 622 1 627 
3 621 613 618 2 627 628 
3 625 626 623 0 
3 622 626 624 0 
2 620 619 0 
0 3 632 633 635 
0 3 632 633 635 
2 631 630 2 634 644 
2 630 631 2 634 644 
2 633 632 3 636 638 640 
2 630 631 3 636 638 640 
2 635 634 2 637 655 
1 636 3 639 641 642 
2 635 634 3 639 641 642 
2 637 638 3 643 647 656 
2 634 635 3 641 642 643 
3 637 638 640 3 645 646 647 
3 637 640 638 3 645 647 656 
2 640 639 3 645 646 648 
2 633 632 3 646 648 651 
3 643 642 641 3 650 652 653 
3 643 641 644 3 653 654 657 
3 639 642 641 3 648 651 653 
3 647 643 644 2 650 652 
0 3 650 651 655 
3 649 648 645 2 654 657 
3 647 644 649 1 652 
3 651 648 645 3 654 658 659 
3 647 645 646 2 658 659 
3 652 650 646 0 
2 649 636 1 656 
3 655 639 642 1 657 
3 656 650 646 2 658 659 
3 653 657 652 0 
3 652 657 653 0 
0 3 661 662 663 
1 660 3 666 667 668 
1 660 3 666 667 668 
1 660 3 667 668 672 
0 3 672 676 678 
0 3 666 672 676 
3 662 665 661 2 670 671 
3 662 661 663 2 669 671 
3 661 663 662 3 669 670 671 
2 667 668 3 674 677 678 
2 668 666 3 673 675 677 
3 668 667 666 3 673 675 678 
3 665 664 663 2 675 677 
2 671 670 1 674 
2 673 669 3 680 681 689 
3 672 671 670 3 679 681 685 
2 664 665 2 679 680 
3 670 669 672 3 680 681 682 
3 669 671 664 3 679 682 685 
3 676 678 675 3 683 684 687 
3 676 677 674 3 686 687 688 
3 675 677 674 3 683 684 687 
2 677 678 3 683 684 689 
3 681 682 679 2 686 688 
3 681 682 679 0 
2 678 675 3 686 688 689 
3 683 685 680 0 
3 680 679 681 0 
3 680 685 683 0 
3 674 685 682 0 
0 3 693 694 695 
0 3 693 694 695 
0 2 693 694 
3 692 690 691 3 696 697 698 
3 691 690 692 3 696 697 698 
2 691 690 3 696 697 698 
3 695 693 694 3 699 700 703 
3 693 694 695 3 699 700 703 
3 695 694 693 2 699 703 
3 697 698 696 3 701 702 713 
2 696 697 3 701 702 713 
2 700 699 2 705 707 
2 700 699 2 705 707 
3 698 696 697 3 704 705 707 
1 703 3 706 708 709 
3 702 701 703 3 706 708 709 
2 705 704 3 710 711 712 
3 701 702 703 2 708 714 
3 704 705 707 3 710 711 712 
2 704 705 3 710 711 712 
3 706 708 709 3 715 716 717 
3 708 706 709 2 718 719 
3 708 709 706 3 715 716 718 
2 699 700 3 714 715 717 
2 707 713 2 716 718 
3 710 713 712 1 719 
3 714 712 710 1 719 
2 710 713 0 
3 712 714 711 0 
3 716 711 715 0 
0 3 721 722 723 
1 720 3 724 725 726 
1 720 3 724 725 726 
1 720 3 724 725 726 
3 723 721 722 3 727 728 729 
3 721 723 722 3 727 728 729 
3 721 723 722 3 727 728 729 
3 724 726 725 2 732 733 
3 725 724 726 3 732 735 736 
3 724 726 725 3 732 733 741 
0 3 733 734 735 
0 3 734 735 736 
3 727 728 729 2 734 738 
3 727 730 729 3 736 738 740 
3 730 731 732 3 737 739 740 
3 731 730 728 3 737 738 740 
3 731 728 733 2 739 748 
2 734 735 3 742 744 745 
3 732 733 735 3 739 742 748 
3 734 738 736 1 743 
3 733 734 735 3 742 743 748 
1 729 1 743 
3 737 740 738 3 746 747 749 
3 739 740 741 3 744 745 749 
2 743 737 2 746 747 
2 743 737 2 746 747 
3 745 744 742 0 
3 745 744 742 0 
3 740 738 736 1 749 
3 743 748 742 0 
0 3 751 752 756 
1 750 3 753 757 759 
1 750 3 753 757 759 
2 752 751 2 754 764 
1 753 3 755 765 767 
1 754 3 758 762 766 
1 750 3 757 758 759 
3 756 752 751 3 761 762 767 
2 755 756 3 763 768 770 
3 756 751 752 3 761 763 767 
0 2 761 762 
3 760 759 757 1 764 
3 755 760 757 3 763 768 770 
3 759 758 762 2 771 776 
2 753 761 3 765 770 773 
2 764 754 3 766 771 772 
2 765 755 3 768 774 777 
3 757 759 754 3 772 773 777 
3 766 758 762 2 775 779 
0 3 772 773 776 
3 762 764 758 2 771 776 
3 770 765 763 2 774 777 
3 767 765 769 2 775 779 
3 764 767 769 1 774 
3 773 771 766 2 775 778 
3 772 774 768 0 
3 770 769 763 1 778 
3 767 766 771 1 778 
3 776 774 777 1 779 
3 768 772 778 0 
0 3 781 783 788 
1 780 3 784 786 787 
0 3 783 784 786 
2 780 782 3 787 791 798 
2 781 782 3 789 790 791 
0 3 786 787 788 
3 785 782 781 1 795 
3 785 781 783 3 789 790 794 
2 780 785 3 789 790 791 
3 788 784 787 3 792 793 803 
3 784 788 787 3 792 793 795 
3 784 783 788 3 793 794 795 
2 790 789 3 796 797 801 
3 790 789 791 3 796 797 802 
2 791 787 3 797 801 803 
3 791 786 790 3 796 802 803 
3 795 793 792 3 799 800 805 
3 793 792 794 3 799 800 804 
1 783 3 799 800 801 
3 796 798 797 2 806 807 
3 797 796 798 2 806 808 
3 792 798 794 2 804 805 
2 795 793 2 807 808 
3 795 794 789 3 804 805 806 
3 801 797 803 1 807 
3 803 796 801 2 808 809 
3 803 799 800 0 
3 804 799 802 1 809 
3 802 805 800 0 
2 807 805 0 
0 3 811 820 825 
1 810 3 812 815 819 
1 811 3 814 817 821 
0 3 814 815 819 
2 813 812 2 816 818 
2 813 811 3 816 817 821 
2 815 814 3 824 826 827 
2 815 812 3 818 823 836 
2 814 817 3 824 826 833 
2 811 813 3 823 826 827 
1 810 3 821 823 824 
3 812 815 820 3 829 833 836 
0 3 825 827 836 
3 820 819 817 2 831 839 
3 816 818 820 2 828 832 
2 810 822 3 828 830 832 
3 819 816 818 3 829 830 832 
3 819 816 822 3 828 830 833 
3 827 825 824 3 829 834 837 
3 826 828 821 2 831 838 
3 825 827 826 3 831 834 837 
3 829 830 823 1 835 
3 825 824 826 2 835 837 
3 821 827 818 1 834 
3 830 833 828 2 835 839 
3 834 831 832 0 
3 822 817 821 1 838 
3 828 832 830 1 838 
3 829 837 836 1 839 
3 823 834 838 0 
0 3 842 852 856 
0 3 842 852 856 
2 841 840 3 843 848 853 
1 842 3 844 855 862 
1 843 3 845 850 857 
1 844 3 846 851 859 
1 845 3 849 854 861 
0 3 848 849 852 
2 842 847 3 850 854 855 
2 846 847 3 858 860 864 
2 848 844 3 851 859 864 
2 850 845 1 867 
3 840 841 847 3 853 854 857 
2 842 852 3 855 860 862 
3 846 852 848 3 863 864 865 
3 843 853 848 3 858 859 861 
2 840 841 3 857 858 862 
3 844 852 856 3 860 861 865 
3 855 856 849 2 863 869 
3 855 845 850 0 
3 849 857 853 2 863 866 
3 846 855 857 1 868 
3 853 843 856 3 865 867 868 
3 860 858 854 0 
3 849 854 850 3 866 867 868 
3 854 857 862 2 866 869 
3 860 864 865 0 
3 864 862 851 1 869 
3 864 861 862 0 
3 865 858 867 0 
0 3 873 875 877 
0 3 873 875 877 
0 3 873 875 877 
3 872 870 871 3 874 876 882 
1 873 3 878 879 883 
3 870 872 871 2 876 879 
2 875 873 3 880 881 883 
3 872 870 871 2 878 882 
2 874 877 3 880 881 885 
2 874 875 2 880 885 
3 879 876 878 3 884 887 888 
2 876 878 3 884 887 888 
2 873 877 3 883 884 885 
3 874 882 876 2 886 887 
3 881 880 882 3 886 892 898 
3 882 879 878 3 886 892 898 
3 884 883 885 3 889 890 891 
3 881 880 883 3 889 890 891 
2 880 881 3 889 890 891 
3 888 886 887 3 893 894 895 
3 887 886 888 2 893 895 
3 886 887 888 3 895 897 899 
2 884 885 3 893 894 899 
3 890 892 889 2 896 897 
2 892 889 2 896 897 
3 889 890 891 1 896 
3 893 895 894 0 
3 891 893 894 0 
2 884 885 1 899 
3 892 891 898 0 
